Data path: /scratch/opt/lxu/CFLG/benchmarks/tree_A
Instance: treeA.100.20
Result path: /scratch/opt/lxu/CFLG/results/tree_A
Solver: Gurobi
Time limit: 7200
Formulation: LEFPAD
Cover: Small
julia --project=. src/main.jl /scratch/opt/lxu/CFLG/benchmarks/tree_A treeA.100.20 /scratch/opt/lxu/CFLG/results/tree_A Gurobi 7200 LEFPAD Small
The latest version of Julia in the `release` channel is 1.11.6+0.x64.linux.gnu. You currently have `1.11.4+0.x64.linux.gnu` installed. Run:

  juliaup update

in your terminal shell to install Julia 1.11.6+0.x64.linux.gnu and update the `release` channel to that version.
/scratch/opt/lxu/CFLG/benchmarks/tree_A Gurobi 7200.0 /scratch/opt/lxu/CFLG/results/tree_A treeA.100.20 LEFPAD Small
/scratch/opt/lxu/CFLG/benchmarks/tree_A/treeA.100.20

 read graph
data loaded


after absorb:73 100

max_piece:18
problem_graph/original graph: node: 73/100 edge: 92/119 dlt: 0.37902472169774126 break_avg_len: 1.961040951392661 break_max_len: 6.513524280307172Vbar/V, Ebar/E(72, 73, 91, 92)
Set parameter TokenServer to value "solice01.zib.de"
Set parameter Threads to value 1
Set parameter OutputFlag to value 1
Gurobi Optimizer version 12.0.1 build v12.0.1rc0 (linux64 - "Debian GNU/Linux 12 (bookworm)")

CPU model: Intel(R) Xeon(R) Gold 5222 CPU @ 3.80GHz, instruction set [SSE2|AVX|AVX2|AVX512]
Thread count: 8 physical cores, 16 logical processors, using up to 1 threads

Non-default parameters:
Threads  1

Optimize a model with 165 rows, 276 columns and 460 nonzeros
Model fingerprint: 0x7205c775
Coefficient statistics:
  Matrix range     [1e+00, 1e+00]
  Objective range  [1e+00, 1e+00]
  Bounds range     [1e+00, 1e+00]
  RHS range        [1e+00, 1e+00]
Presolve removed 66 rows and 75 columns
Presolve time: 0.01s
Presolved: 99 rows, 201 columns, 319 nonzeros

Iteration    Objective       Primal Inf.    Dual Inf.      Time
       0    7.2000000e+01   3.200000e+01   0.000000e+00      0s
      55    4.3000000e+01   0.000000e+00   0.000000e+00      0s

Solved in 55 iterations and 0.01 seconds (0.00 work units)
Optimal objective  4.300000000e+01

User-callback calls 190, time in user-callback 0.00 sec
elapsed CPU time: 0.951898 seconds
Set parameter TokenServer to value "solice01.zib.de"
Set parameter Threads to value 1
Set parameter OutputFlag to value 1
Set parameter MIPGap to value 0.0001
Set parameter TimeLimit to value 7199.048102

 more cuts: false 0.37902472169774126 false
is_attach:trueformulation:LEFPAD91 1 1

 model loaded

Gurobi Optimizer version 12.0.1 build v12.0.1rc0 (linux64 - "Debian GNU/Linux 12 (bookworm)")

CPU model: Intel(R) Xeon(R) Gold 5222 CPU @ 3.80GHz, instruction set [SSE2|AVX|AVX2|AVX512]
Thread count: 8 physical cores, 16 logical processors, using up to 1 threads

Non-default parameters:
TimeLimit  7199.048102
Threads  1

Optimize a model with 1574 rows, 1049 columns and 3285 nonzeros
Model fingerprint: 0xac42f1cd
Variable types: 443 continuous, 606 integer (606 binary)
Coefficient statistics:
  Matrix range     [8e-03, 7e+00]
  Objective range  [1e+00, 1e+00]
  Bounds range     [2e-01, 7e+00]
  RHS range        [2e-01, 6e+00]
Presolve removed 1059 rows and 493 columns
Presolve time: 0.01s
Presolved: 515 rows, 556 columns, 1628 nonzeros
Variable types: 338 continuous, 218 integer (218 binary)
Found heuristic solution: objective 266.0000000
Found heuristic solution: objective 251.0000000

Root relaxation: objective 2.096474e+02, 462 iterations, 0.00 seconds (0.00 work units)

    Nodes    |    Current Node    |     Objective Bounds      |     Work
 Expl Unexpl |  Obj  Depth IntInf | Incumbent    BestBd   Gap | It/Node Time

     0     0  209.64745    0  102  251.00000  209.64745  16.5%     -    0s
H    0     0                     250.0000000  209.64745  16.1%     -    0s
     0     0  215.01250    0  114  250.00000  215.01250  14.0%     -    0s
H    0     0                     236.0000000  215.04720  8.88%     -    0s
H    0     0                     235.0000000  215.04720  8.49%     -    0s
     0     0  215.28509    0  118  235.00000  215.28509  8.39%     -    0s
     0     0  215.30481    0  118  235.00000  215.30481  8.38%     -    0s
     0     0  215.30660    0  118  235.00000  215.30660  8.38%     -    0s
     0     0  218.69947    0  131  235.00000  218.69947  6.94%     -    0s
H    0     0                     234.0000000  218.74973  6.52%     -    0s
     0     0  218.82274    0  135  234.00000  218.82274  6.49%     -    0s
     0     0  218.83805    0  136  234.00000  218.83805  6.48%     -    0s
     0     0  218.84330    0  136  234.00000  218.84330  6.48%     -    0s
     0     0  220.35860    0  137  234.00000  220.35860  5.83%     -    0s
H    0     0                     232.0000000  220.42816  4.99%     -    0s
     0     0  220.45238    0  142  232.00000  220.45238  4.98%     -    0s
     0     0  220.46987    0  139  232.00000  220.46987  4.97%     -    0s
     0     0  220.47847    0  138  232.00000  220.47847  4.97%     -    0s
     0     0  220.97939    0  137  232.00000  220.97939  4.75%     -    0s
     0     0  221.03194    0  133  232.00000  221.03194  4.73%     -    0s
     0     0  221.06095    0  128  232.00000  221.06095  4.72%     -    0s
     0     0  221.06839    0  129  232.00000  221.06839  4.71%     -    0s
     0     0  221.43449    0  127  232.00000  221.43449  4.55%     -    0s
H    0     0                     231.0000000  221.46338  4.13%     -    0s
     0     0  221.53667    0  134  231.00000  221.53667  4.10%     -    0s
     0     0  221.54618    0  134  231.00000  221.54618  4.09%     -    0s
     0     0  221.63200    0  122  231.00000  221.63200  4.06%     -    0s
     0     0  221.66336    0  127  231.00000  221.66336  4.04%     -    0s
     0     0  221.66591    0  127  231.00000  221.66591  4.04%     -    0s
     0     0  221.87604    0  134  231.00000  221.87604  3.95%     -    0s
     0     0  221.94825    0  133  231.00000  221.94825  3.92%     -    0s
     0     0  221.96259    0  136  231.00000  221.96259  3.91%     -    0s
     0     0  221.96737    0  138  231.00000  221.96737  3.91%     -    0s
     0     0  222.00779    0  132  231.00000  222.00779  3.89%     -    0s
     0     0  222.02556    0  131  231.00000  222.02556  3.89%     -    0s
     0     2  222.03498    0  130  231.00000  222.03498  3.88%     -    0s
H  183   150                     230.0000000  222.29565  3.35%  21.0    0s
  1267   764  226.50000   33  126  230.00000  225.94300  1.76%  45.7    5s
  3475  1602 infeasible   46       230.00000  226.50310  1.52%  52.7   10s
  6271  2730  227.80824   50   71  230.00000  226.73428  1.42%  51.4   15s
* 8514  1996              62     229.0000000  226.87601  0.93%  51.4   18s
  9046  2043  227.51426   43   72  229.00000  226.94856  0.90%  51.9   20s
 10203  2121  227.44769   40  131  229.00000  227.03193  0.86%  52.9   26s
 10291  2180  227.45833   42  158  229.00000  227.03193  0.86%  52.5   30s
 10494  2262  227.77047   49   74  229.00000  227.03193  0.86%  53.9   35s
 11800  1986  227.99851   52   95  229.00000  227.52090  0.65%  54.8   40s

Cutting planes:
  Gomory: 14
  Cover: 90
  Implied bound: 38
  Clique: 4
  MIR: 216
  Mixing: 1
  Flow cover: 313
  GUB cover: 7
  Zero half: 3
  RLT: 17
  Relax-and-lift: 6

Explored 12796 nodes (723862 simplex iterations) in 42.65 seconds (32.63 work units)
Thread count was 1 (of 16 available processors)

Solution count 10: 229 229 230 ... 251

Optimal solution found (tolerance 1.00e-04)
Warning: max constraint violation (1.0000e-06) exceeds tolerance
Best objective 2.290000000000e+02, best bound 2.290000000000e+02, gap 0.0000%

User-callback calls 45533, time in user-callback 0.03 sec

 sepatime0 0 0
229.0
Stat(MathOptInterface.OPTIMAL, 229.0, 229.0, 0.0, 0.0, 0.951898, 42.64982604980469, 12796, Main.CFLG.LEFPAD, "", #undef)
